9108.46,66.77,82.83
8899.21,68.34,84.78
8836.47,68.83,85.38
8689.21,70.0,86.83
8865.43,68.6,85.1
9427.71,64.51,80.03
8838.66,68.81,85.36
8871.96,68.55,85.04
10082.11,60.33,74.83
8609.96,70.64,87.63
8475.99,71.76,89.01
9817.18,61.95,76.85
9916.08,61.34,76.09
8959.86,67.88,84.21
9551.96,63.67,78.99
8715.28,69.79,86.57
9861.02,61.68,76.51
8989.2,67.66,83.93
9510.36,63.95,79.33
9413.44,64.61,80.15
